p edge 238 814
e 1 5
e 1 9
e 1 14
e 1 15
e 1 18
e 1 25
e 1 34
e 1 38
e 1 45
e 1 56
e 1 77
e 1 143
e 1 181
e 1 197
e 2 10
e 2 14
e 2 15
e 2 16
e 2 21
e 2 31
e 2 52
e 2 70
e 2 80
e 2 97
e 2 114
e 2 127
e 2 128
e 2 146
e 2 149
e 2 151
e 2 152
e 3 5
e 3 44
e 3 49
e 3 60
e 3 63
e 3 71
e 3 93
e 3 100
e 3 125
e 3 134
e 3 196
e 3 203
e 3 221
e 3 222
e 4 20
e 4 23
e 4 25
e 4 30
e 4 58
e 4 64
e 4 65
e 4 84
e 4 87
e 4 118
e 4 119
e 4 135
e 4 228
e 4 229
e 4 230
e 5 6
e 5 13
e 5 15
e 5 18
e 5 22
e 5 27
e 5 29
e 5 45
e 5 57
e 5 60
e 5 85
e 5 100
e 5 186
e 6 8
e 6 9
e 6 17
e 6 18
e 6 21
e 6 27
e 6 29
e 6 37
e 6 38
e 6 51
e 6 66
e 6 82
e 6 86
e 6 108
e 6 128
e 6 206
e 6 207
e 6 212
e 7 11
e 7 13
e 7 19
e 7 25
e 7 48
e 7 55
e 7 57
e 7 80
e 7 94
e 7 100
e 7 111
e 7 209
e 7 210
e 8 9
e 8 12
e 8 18
e 8 21
e 8 24
e 8 29
e 8 37
e 8 41
e 8 52
e 8 67
e 8 82
e 8 108
e 8 128
e 8 130
e 8 131
e 8 146
e 8 170
e 8 189
e 9 27
e 9 34
e 9 38
e 9 51
e 9 77
e 9 82
e 9 86
e 9 108
e 9 149
e 9 151
e 9 169
e 9 197
e 9 198
e 10 14
e 10 15
e 10 16
e 10 17
e 10 18
e 10 26
e 10 38
e 10 40
e 10 48
e 10 70
e 10 78
e 10 80
e 10 97
e 10 121
e 10 129
e 11 43
e 11 48
e 11 50
e 11 52
e 11 53
e 11 55
e 11 57
e 11 94
e 11 109
e 11 110
e 11 116
e 11 205
e 11 209
e 11 210
e 12 15
e 12 18
e 12 24
e 12 46
e 12 62
e 12 66
e 12 67
e 12 79
e 12 103
e 12 189
e 13 20
e 13 32
e 13 35
e 13 39
e 13 58
e 13 66
e 13 92
e 13 136
e 13 176
e 13 179
e 13 205
e 13 232
e 14 22
e 14 26
e 14 40
e 14 50
e 14 52
e 14 55
e 14 78
e 14 101
e 14 105
e 14 128
e 14 132
e 14 146
e 14 149
e 14 151
e 15 16
e 15 18
e 15 24
e 15 37
e 15 45
e 15 52
e 15 67
e 15 80
e 15 97
e 15 103
e 16 72
e 16 73
e 16 80
e 16 92
e 16 97
e 16 131
e 16 138
e 16 168
e 16 195
e 17 38
e 17 42
e 17 47
e 17 51
e 17 70
e 17 82
e 17 108
e 17 128
e 17 130
e 17 187
e 18 21
e 18 22
e 18 24
e 18 27
e 18 28
e 18 37
e 18 45
e 18 57
e 18 80
e 18 85
e 18 103
e 18 121
e 18 131
e 18 148
e 19 20
e 19 26
e 19 43
e 19 56
e 19 73
e 19 100
e 19 106
e 19 119
e 19 138
e 19 160
e 19 190
e 19 217
e 20 23
e 20 30
e 20 42
e 20 44
e 20 49
e 20 59
e 20 73
e 20 87
e 20 106
e 20 190
e 21 37
e 21 66
e 21 70
e 21 72
e 21 85
e 21 102
e 21 206
e 21 207
e 22 27
e 22 38
e 22 40
e 22 41
e 22 55
e 22 57
e 22 78
e 22 85
e 22 91
e 22 101
e 22 103
e 22 105
e 22 129
e 22 220
e 23 30
e 23 46
e 23 48
e 23 110
e 23 115
e 23 132
e 23 140
e 23 173
e 23 183
e 24 41
e 24 52
e 24 58
e 24 79
e 24 103
e 24 112
e 24 184
e 25 47
e 25 56
e 25 80
e 25 87
e 25 111
e 25 135
e 25 181
e 25 191
e 26 33
e 26 40
e 26 58
e 26 66
e 26 95
e 26 99
e 26 119
e 26 135
e 26 160
e 26 176
e 26 217
e 27 38
e 27 51
e 27 57
e 27 82
e 27 85
e 27 86
e 27 87
e 27 117
e 28 56
e 28 64
e 28 119
e 28 131
e 28 139
e 28 177
e 28 184
e 28 194
e 28 233
e 28 234
e 29 41
e 29 43
e 29 54
e 29 56
e 29 136
e 29 161
e 29 162
e 29 170
e 29 186
e 29 214
e 30 77
e 30 121
e 30 129
e 30 180
e 31 62
e 31 69
e 31 71
e 31 76
e 31 83
e 31 84
e 31 88
e 31 89
e 31 122
e 31 145
e 31 152
e 32 35
e 32 39
e 32 53
e 32 64
e 32 88
e 32 92
e 32 144
e 33 58
e 33 87
e 33 95
e 33 99
e 33 106
e 33 136
e 33 150
e 33 182
e 34 63
e 34 71
e 34 77
e 34 116
e 34 132
e 34 175
e 34 183
e 34 197
e 35 39
e 35 53
e 35 64
e 35 68
e 35 92
e 35 155
e 35 213
e 36 61
e 36 71
e 36 145
e 36 199
e 36 218
e 37 70
e 37 72
e 37 97
e 37 102
e 38 41
e 38 51
e 38 82
e 38 86
e 38 91
e 38 108
e 38 128
e 38 129
e 39 92
e 39 133
e 39 201
e 39 202
e 40 43
e 40 48
e 40 50
e 40 55
e 40 78
e 40 101
e 40 105
e 40 129
e 40 132
e 41 45
e 41 74
e 41 91
e 41 129
e 41 170
e 42 44
e 42 49
e 42 59
e 42 113
e 43 53
e 43 54
e 43 161
e 43 162
e 43 205
e 43 214
e 44 49
e 44 81
e 44 114
e 44 125
e 44 134
e 44 167
e 44 235
e 45 90
e 46 54
e 46 66
e 46 69
e 46 93
e 46 135
e 46 165
e 47 60
e 47 103
e 47 117
e 47 126
e 47 130
e 47 150
e 48 55
e 48 78
e 48 91
e 48 109
e 48 115
e 48 129
e 48 140
e 48 175
e 49 81
e 49 125
e 49 134
e 49 196
e 50 55
e 50 102
e 50 105
e 50 109
e 50 110
e 50 132
e 50 159
e 50 208
e 51 67
e 51 74
e 51 82
e 51 86
e 51 108
e 51 128
e 52 63
e 52 68
e 52 103
e 52 116
e 52 128
e 52 131
e 52 146
e 52 149
e 52 151
e 52 173
e 53 64
e 53 92
e 53 155
e 53 205
e 54 135
e 54 161
e 54 162
e 54 182
e 54 214
e 55 57
e 55 78
e 55 94
e 55 101
e 55 105
e 55 132
e 55 209
e 55 210
e 56 73
e 56 147
e 56 181
e 56 194
e 56 233
e 56 234
e 57 85
e 57 87
e 57 90
e 57 106
e 57 141
e 57 172
e 57 209
e 57 210
e 58 65
e 58 95
e 58 99
e 58 112
e 58 181
e 58 232
e 59 96
e 59 120
e 59 155
e 60 77
e 60 94
e 60 100
e 60 103
e 60 190
e 60 211
e 61 113
e 61 120
e 62 65
e 62 69
e 62 79
e 62 84
e 62 98
e 63 68
e 63 109
e 63 116
e 63 132
e 63 173
e 63 175
e 64 92
e 64 118
e 64 119
e 64 157
e 64 188
e 65 69
e 65 98
e 66 99
e 66 136
e 66 176
e 66 179
e 66 205
e 66 206
e 66 207
e 67 74
e 67 189
e 68 173
e 68 213
e 69 89
e 69 98
e 69 143
e 70 77
e 70 78
e 70 85
e 70 102
e 70 124
e 71 145
e 71 152
e 71 183
e 71 199
e 71 203
e 72 74
e 72 167
e 72 168
e 73 106
e 73 190
e 74 137
e 75 95
e 75 126
e 75 191
e 75 195
e 76 83
e 76 88
e 76 96
e 76 98
e 76 123
e 76 158
e 76 174
e 77 124
e 77 197
e 77 211
e 78 101
e 78 102
e 78 105
e 78 129
e 79 130
e 79 184
e 80 97
e 80 111
e 80 148
e 80 151
e 81 88
e 81 89
e 81 98
e 81 196
e 81 231
e 82 86
e 82 108
e 82 128
e 83 88
e 83 96
e 83 120
e 83 123
e 83 158
e 84 124
e 84 228
e 84 229
e 84 230
e 85 90
e 85 102
e 86 149
e 86 151
e 86 169
e 87 135
e 87 136
e 88 96
e 88 122
e 88 158
e 88 231
e 89 98
e 89 142
e 90 133
e 90 186
e 90 187
e 91 109
e 91 129
e 92 138
e 92 177
e 93 111
e 93 165
e 93 222
e 94 100
e 94 141
e 94 156
e 94 172
e 94 209
e 94 210
e 95 99
e 95 191
e 95 224
e 95 225
e 96 120
e 96 154
e 96 158
e 96 185
e 97 148
e 97 153
e 97 236
e 98 174
e 99 169
e 100 190
e 101 105
e 101 139
e 101 208
e 104 152
e 104 159
e 104 237
e 104 238
e 105 109
e 105 110
e 105 132
e 106 141
e 106 172
e 106 190
e 107 164
e 107 166
e 108 128
e 108 168
e 109 110
e 110 183
e 112 142
e 112 147
e 112 171
e 113 185
e 113 192
e 113 193
e 114 127
e 114 154
e 114 158
e 114 235
e 115 140
e 115 146
e 115 164
e 115 180
e 115 204
e 116 132
e 116 175
e 117 156
e 117 165
e 118 119
e 119 160
e 119 177
e 119 184
e 119 217
e 121 180
e 122 134
e 122 223
e 123 144
e 123 200
e 125 134
e 125 178
e 126 150
e 126 157
e 126 160
e 127 154
e 127 158
e 128 131
e 128 146
e 128 149
e 128 151
e 131 146
e 132 140
e 132 173
e 132 175
e 133 153
e 133 186
e 133 201
e 133 202
e 134 196
e 134 223
e 135 176
e 136 176
e 136 179
e 136 205
e 137 166
e 138 177
e 138 195
e 139 208
e 140 173
e 141 156
e 141 172
e 142 147
e 144 200
e 144 204
e 145 152
e 145 199
e 146 149
e 146 151
e 147 171
e 148 153
e 148 236
e 149 151
e 150 182
e 153 236
e 154 158
e 154 185
e 156 163
e 156 165
e 156 172
e 157 160
e 157 188
e 159 208
e 159 238
e 160 217
e 161 162
e 161 214
e 162 214
e 164 166
e 164 180
e 164 204
e 176 179
e 176 205
e 177 184
e 178 203
e 179 205
e 180 204
e 185 192
e 185 193
e 192 193
e 194 215
e 194 216
e 194 233
e 194 234
e 197 219
e 200 204
e 201 202
e 206 207
e 206 212
e 207 212
e 209 210
e 212 226
e 212 227
e 215 216
e 224 225
e 226 227
e 228 229
e 228 230
e 229 230
e 233 234
